1381.29
0 20 12 8 1 2 14 13 15 9 11 7 6 10 4 3 5 0
0 17 16 26 23 21 19 25 33 30 27 24 22 28 31 34 36 35 32 29 47 18 0
0 39 37 38 42 51 50 49 46 41 44 48 45 43 40 52 79 0
0 64 63 66 62 61 65 59 57 60 58 56 55 53 54 67 88 0
0 70 69 77 75 76 74 78 80 72 71 73 68 83 81 82 0
0 106 101 99 100 98 97 94 91 90 84 85 92 86 89 93 96 95 87 0
0 117 113 114 118 108 109 115 110 116 107 103 104 112 111 102 105 120 119 0
